(set-logic QF_S)
(declare-fun A () String)
(declare-fun J () String)
(assert (= (str.++  "b" A "aac" A "abdbedefaeefafffecef" A "b" A "daafdafdeea")  (str.++  "b" A "aa" A J "fcbcdaafdafdeea") ))
(assert (= (str.++  "eef" A "cddd" A A "dadcfddfafbb" A "adf" A "c" A "dffdddf" A A "ad")  (str.++  "eef" A "cddd" A A "dad" A "fddfafbbcadf" A A "cdffdddf" A A "ad") ))
(assert (= (str.++  "efebccdba" A "fc" A "defa" A "ddffbbfaabadfeaef" A "d" A "bb")  (str.++  "efebccdbacfccdefa" A "ddffbbfaabadfeaef" A "d" A "bb") ))
(assert (>=(* (str.len J) 5) 10))
(check-sat)
(get-model)
